% seed = 0

mint = 35;
% maxt = 160;

nActs = 62;
dur = [0,3,2,4,1,2,4,1,2,4,3,3,3,2,3,4,2,2,1,1,4,2,2,2,4,3,4,2,4,3,3,4,2,4,1,2,2,4,3,2,4,3,1,2,2,2,4,4,3,2,5,4,3,2,2,1,2,2,3,4,1,0];

nSkills = 9;
sreq = [| 0,0,0,0,0,0,0,0,0,
	| 0,0,1,0,0,1,0,0,1,
	| 0,0,0,0,0,2,1,0,0,
	| 0,0,0,0,0,0,1,0,0,
	| 0,0,0,1,0,0,0,0,0,
	| 0,0,0,0,0,1,0,0,1,
	| 0,0,0,0,1,0,0,0,2,
	| 0,1,0,0,0,0,0,0,0,
	| 0,0,0,0,1,2,0,0,0,
	| 0,0,1,0,0,0,0,1,0,
	| 0,0,0,0,0,1,0,0,0,
	| 0,0,0,0,0,1,0,0,1,
	| 0,0,0,0,1,0,0,0,0,
	| 0,0,1,0,0,0,0,0,1,
	| 0,0,0,1,1,0,0,0,0,
	| 0,0,1,0,0,1,0,0,1,
	| 0,0,1,0,0,0,0,0,1,
	| 0,0,0,1,0,1,0,0,0,
	| 0,0,1,1,0,0,0,0,0,
	| 0,0,1,0,0,1,1,0,0,
	| 0,0,1,0,0,0,1,0,0,
	| 0,0,0,0,1,0,0,0,1,
	| 0,0,1,0,1,0,0,0,1,
	| 0,0,0,1,0,0,0,1,0,
	| 0,0,0,1,0,1,0,1,0,
	| 0,0,0,0,0,0,0,1,0,
	| 0,0,0,0,0,0,0,0,1,
	| 1,0,0,0,1,1,0,0,0,
	| 0,0,0,1,0,1,0,0,0,
	| 0,0,0,0,1,0,1,0,1,
	| 0,0,1,0,0,1,0,0,1,
	| 0,0,0,0,0,2,0,0,0,
	| 0,0,1,0,0,0,0,0,1,
	| 0,0,0,0,0,1,1,0,0,
	| 0,0,0,1,0,0,0,0,0,
	| 0,0,0,0,1,0,0,1,1,
	| 0,0,0,0,0,0,0,0,1,
	| 0,0,0,1,0,1,0,0,0,
	| 0,0,0,0,0,0,1,0,0,
	| 0,0,1,0,0,0,0,1,0,
	| 0,0,0,0,0,0,0,1,0,
	| 0,1,0,0,0,0,0,0,1,
	| 0,0,0,0,0,0,0,1,0,
	| 0,0,0,0,1,0,1,0,1,
	| 0,0,0,0,0,0,0,0,1,
	| 0,0,1,0,0,0,0,0,1,
	| 0,0,0,0,1,0,0,0,2,
	| 0,0,1,0,1,0,0,0,1,
	| 0,0,0,1,0,0,1,0,0,
	| 0,0,0,0,1,1,0,0,1,
	| 0,0,1,0,1,1,0,0,0,
	| 0,0,0,0,0,1,1,0,1,
	| 0,1,0,0,0,1,0,0,0,
	| 0,0,0,0,0,0,0,0,1,
	| 0,1,0,0,0,0,0,1,1,
	| 0,0,0,0,0,0,0,0,2,
	| 0,0,0,0,0,0,1,0,0,
	| 0,1,0,0,0,0,1,0,1,
	| 0,0,0,0,1,0,0,0,0,
	| 0,0,1,0,0,0,0,0,0,
	| 0,0,0,0,0,1,1,0,0,
	| 0,0,0,0,0,0,0,0,0, |];

% SumOfsreq = 123;

nResources = 9;
mastery = [| false,false,true,false,false,true,false,false,false,
	| false,false,true,false,false,false,true,true,true,
	| false,false,false,false,false,false,false,false,true,
	| false,false,false,false,false,false,true,true,true,
	| true,true,true,true,true,true,false,false,false,
	| false,false,false,false,false,false,false,false,true,
	| false,false,false,true,true,true,false,false,false,
	| false,false,false,false,true,true,false,false,false,
	| false,true,true,false,false,false,false,false,false, |];

nPrecs = 131;
pred = [1,1,1,2,2,2,3,3,3,4,4,4,5,5,5,6,6,6,7,7,7,8,8,8,9,9,9,10,10,10,11,11,12,12,12,13,13,13,14,14,14,15,15,15,16,16,16,17,17,17,18,18,18,19,19,20,21,21,21,22,22,23,23,23,24,24,24,25,25,25,26,26,27,27,27,28,28,29,30,30,30,31,31,32,32,32,33,33,34,34,34,35,35,35,36,36,37,37,37,38,38,39,39,40,40,41,42,43,44,45,45,45,46,47,47,48,49,49,50,50,51,52,53,54,55,56,57,58,59,60,61];
succ = [2,3,4,18,11,32,6,7,14,36,5,16,9,22,8,53,13,38,25,28,47,10,19,12,17,28,48,33,20,38,41,45,28,14,15,57,29,21,26,34,32,17,61,30,17,27,21,20,29,56,19,23,24,50,35,26,42,52,47,33,49,27,43,46,33,50,35,39,30,31,46,31,42,51,44,29,30,40,49,43,46,57,40,45,37,39,44,53,42,53,50,37,39,40,38,54,60,51,44,41,60,41,49,43,52,51,45,55,47,59,54,48,55,58,48,61,52,56,59,60,56,55,54,61,58,57,58,59,62,62,62];

nUnrels = 995;
unpred = [2,2,2,2,2,2,2,2,2,2,2,2,2,2,2,2,2,2,2,2,2,2,2,2,2,2,3,3,3,3,3,3,3,3,3,3,3,3,3,3,3,3,3,3,3,3,4,4,4,4,4,4,4,4,5,5,5,5,5,5,5,5,5,5,5,5,6,6,6,6,6,6,6,6,6,6,6,6,6,6,6,6,6,6,6,6,6,6,6,6,6,6,6,6,6,6,6,6,6,7,7,7,7,7,7,7,7,7,7,7,7,7,7,7,7,7,7,7,7,7,7,7,7,7,7,7,7,7,7,7,7,7,8,8,8,8,8,8,8,8,8,8,8,8,9,9,9,9,9,9,9,9,9,9,9,9,9,9,9,9,9,9,9,9,9,9,9,9,9,9,9,9,9,9,9,9,9,10,10,10,10,10,10,10,10,10,10,10,10,10,10,10,10,10,10,10,10,10,10,10,10,10,10,10,10,11,11,11,11,11,11,11,11,11,11,11,11,11,11,11,11,11,11,11,11,11,11,11,11,11,11,11,11,11,11,11,11,11,11,11,11,11,11,11,11,12,12,12,12,12,12,12,12,12,12,12,12,12,12,13,13,13,13,13,13,13,13,13,13,13,13,13,13,13,13,13,13,13,13,13,13,13,13,13,13,13,13,13,13,13,13,13,14,14,14,14,14,14,14,14,14,14,14,14,14,14,14,14,14,14,14,15,15,15,15,15,15,15,15,15,15,15,15,15,15,15,15,15,15,15,15,15,15,15,15,15,15,15,15,15,16,16,16,16,16,16,16,16,16,16,16,16,16,16,16,16,16,16,16,16,16,17,17,17,17,17,17,17,17,17,17,17,17,17,17,17,17,17,17,17,17,17,17,17,17,17,17,17,17,17,17,17,18,18,18,18,18,18,18,18,18,18,18,18,18,19,19,19,19,19,19,19,19,19,19,19,19,19,19,19,19,19,19,19,19,19,19,20,20,20,20,20,20,20,20,20,20,20,20,20,20,20,20,20,20,20,20,20,20,20,20,20,20,20,20,20,20,20,21,21,21,21,21,21,21,21,21,21,21,21,21,21,21,21,21,21,21,21,21,21,21,21,21,21,21,21,21,21,22,22,22,22,22,22,22,22,22,22,22,22,22,22,22,22,22,22,22,22,22,22,22,22,22,23,23,23,23,23,23,23,23,23,23,23,23,23,23,23,23,23,23,23,23,23,23,24,24,24,24,24,24,24,24,24,24,24,24,24,24,25,25,25,25,25,25,25,25,25,25,25,25,25,25,25,25,25,25,25,25,25,26,26,26,26,26,26,26,26,26,26,26,26,26,26,26,26,26,26,26,26,26,26,26,26,26,26,27,27,27,27,27,27,27,27,27,27,27,27,27,27,27,27,27,27,27,27,27,27,28,28,28,28,28,28,28,28,28,28,28,28,28,28,28,28,28,28,28,28,28,29,29,29,29,29,29,29,29,29,29,29,29,29,29,29,29,29,29,29,29,29,29,29,29,29,29,30,30,30,30,30,30,30,30,30,30,30,30,30,30,30,30,30,30,30,30,30,30,31,31,31,31,31,31,31,31,31,31,31,31,31,31,31,31,31,31,31,31,31,31,31,32,32,32,32,32,32,32,32,32,32,32,33,33,33,33,33,33,33,33,33,33,33,33,33,33,33,33,33,33,33,33,34,34,34,34,34,34,34,34,34,34,34,34,34,34,34,34,34,34,35,35,35,35,35,35,35,35,36,36,36,36,36,36,36,36,36,36,36,36,36,36,36,37,37,37,37,37,37,37,37,37,37,37,37,37,37,38,38,38,38,38,38,38,38,38,38,38,38,38,38,38,38,39,39,39,39,39,39,39,39,39,39,39,39,39,40,40,40,40,40,40,40,40,40,40,40,40,40,40,40,40,41,41,41,41,41,41,41,41,41,41,41,41,41,41,41,42,42,42,42,42,42,42,42,42,42,42,42,42,42,43,43,43,43,43,43,43,43,43,43,43,43,43,43,43,44,44,44,44,44,44,44,44,44,44,44,44,45,45,45,45,45,45,45,45,45,45,45,45,46,46,46,46,46,46,46,46,46,46,46,46,47,47,47,47,47,47,47,47,47,47,48,48,48,48,48,48,48,48,48,48,48,48,49,49,49,49,49,49,50,50,50,50,50,50,50,50,50,51,51,51,51,51,51,52,52,52,52,52,52,53,53,53,53,53,53,54,54,54,54,54,54,55,55,55,55,56,56,57,57,58,58,59,59,60];
unsucc = [3,4,5,6,7,8,9,10,12,13,14,15,16,17,20,21,22,25,26,28,29,30,31,34,36,38,4,5,8,9,10,11,12,15,16,17,18,19,20,22,23,24,27,33,35,36,6,7,11,13,18,23,24,25,6,7,11,13,16,18,21,23,24,25,27,36,7,8,9,10,11,12,14,15,16,17,18,19,20,22,23,24,25,26,27,28,30,31,32,33,34,35,36,37,39,44,46,49,50,8,9,10,11,12,13,14,15,16,17,18,19,20,21,22,23,24,26,27,32,33,34,35,36,37,38,42,44,45,50,53,54,60,9,11,13,16,18,21,22,23,24,25,27,36,10,11,12,13,14,15,16,18,19,21,22,23,24,25,27,32,33,34,35,36,37,38,39,41,42,44,45,47,50,51,53,54,60,11,12,13,14,15,16,17,18,19,21,22,23,24,25,27,28,29,30,32,34,35,36,37,39,42,45,49,50,12,13,14,15,16,17,18,19,20,21,22,23,24,25,26,27,28,29,30,31,32,33,34,35,36,37,38,39,40,42,43,44,46,47,49,50,52,53,55,60,13,16,18,19,21,22,23,24,25,27,33,35,36,38,14,15,16,17,18,19,20,22,23,24,25,26,27,28,30,31,32,33,34,35,36,37,38,39,41,44,46,49,50,51,53,56,60,15,16,17,18,19,20,21,22,23,24,25,27,28,29,30,33,35,36,38,16,18,19,21,22,23,24,25,27,28,32,33,34,35,36,37,38,39,41,42,44,45,47,48,50,51,53,54,60,18,19,22,23,24,25,28,30,32,33,34,35,36,37,38,39,41,49,50,53,60,18,19,21,22,23,24,25,27,28,30,32,33,34,35,36,37,38,39,41,42,44,45,47,48,49,50,51,53,54,60,61,20,21,22,25,26,28,29,30,31,32,34,36,38,20,21,22,23,24,25,26,27,28,29,30,31,32,33,34,36,38,42,45,46,53,54,21,22,23,24,25,27,28,29,30,32,33,34,35,36,37,38,39,41,42,44,45,47,48,49,50,51,53,54,56,60,61,22,23,24,25,26,27,28,29,30,31,32,33,34,35,36,37,38,39,40,41,43,44,46,49,50,51,53,56,57,60,23,24,25,26,27,28,29,30,31,32,34,35,36,37,38,39,40,41,42,43,45,46,50,51,60,24,25,26,28,29,30,31,32,33,34,35,36,37,38,39,40,41,49,50,52,53,60,25,26,27,28,29,30,31,32,34,36,38,42,45,46,26,27,28,29,32,33,34,35,36,37,38,42,44,45,47,48,50,53,54,60,61,27,28,29,30,32,33,34,35,36,37,38,39,41,42,44,45,47,48,49,50,51,53,54,56,60,61,28,29,30,31,32,33,34,35,36,37,38,39,40,41,43,46,49,50,52,53,55,60,31,32,33,34,35,36,37,38,39,41,42,44,45,47,48,50,51,53,54,60,61,30,31,32,33,34,35,36,37,38,39,41,42,44,45,46,47,48,49,50,51,53,54,56,57,60,61,31,32,33,34,35,36,37,38,39,40,41,42,44,45,47,48,50,51,53,54,60,61,32,33,34,35,36,37,38,39,41,42,44,45,46,47,48,49,50,51,53,54,56,60,61,33,34,35,36,38,40,42,43,46,50,53,34,35,36,37,38,39,40,41,42,43,45,46,49,50,51,52,55,56,57,60,35,36,37,38,39,40,41,43,44,46,47,49,51,52,55,56,57,58,36,38,42,45,46,50,53,54,37,39,40,42,43,44,45,46,47,48,49,50,52,53,55,38,39,40,41,42,43,45,46,49,50,52,53,54,55,39,40,42,43,44,45,46,47,48,49,50,52,53,54,55,61,40,42,43,44,45,46,47,48,50,53,54,60,61,41,42,44,45,46,47,48,49,50,51,53,54,56,57,60,61,42,43,44,45,46,47,48,49,50,52,53,54,55,60,61,43,44,46,47,49,50,51,52,53,55,56,57,58,60,44,45,46,47,48,49,50,51,52,53,54,56,57,60,61,45,46,49,50,51,52,53,54,55,56,57,60,46,47,49,50,51,52,53,55,56,57,58,60,47,48,49,50,51,52,53,54,56,57,60,61,49,50,51,52,53,54,55,56,57,60,49,50,51,52,53,54,55,56,57,58,59,60,50,51,53,54,60,61,51,52,53,54,55,56,57,58,61,52,53,54,55,60,61,53,54,56,57,60,61,55,56,57,58,59,60,55,56,57,58,59,60,56,57,60,61,60,61,60,61,60,61,60,61,61];

USEFUL_RES = [{},
	{1,2,3,4,5,6,7,8,9},
	{1,2,4,5,7,8},
	{2,4},
	{5,7},
	{1,2,3,4,5,6,7,8},
	{2,3,4,5,6,7,8},
	{5,9},
	{1,5,7,8},
	{1,2,4,5,9},
	{1,5,7,8},
	{1,2,3,4,5,6,7,8},
	{5,7,8},
	{1,2,3,4,5,6,9},
	{5,7,8},
	{1,2,3,4,5,6,7,8,9},
	{1,2,3,4,5,6,9},
	{1,5,7,8},
	{1,2,5,7,9},
	{1,2,4,5,7,8,9},
	{1,2,4,5,9},
	{2,3,4,5,6,7,8},
	{1,2,3,4,5,6,7,8,9},
	{2,4,5,7},
	{1,2,4,5,7,8},
	{2,4},
	{2,3,4,6},
	{1,5,7,8},
	{1,5,7,8},
	{2,3,4,5,6,7,8},
	{1,2,3,4,5,6,7,8,9},
	{1,5,7,8},
	{1,2,3,4,5,6,9},
	{1,2,4,5,7,8},
	{5,7},
	{2,3,4,5,6,7,8},
	{2,3,4,6},
	{1,5,7,8},
	{2,4},
	{1,2,4,5,9},
	{2,4},
	{2,3,4,5,6,9},
	{2,4},
	{2,3,4,5,6,7,8},
	{2,3,4,6},
	{1,2,3,4,5,6,9},
	{2,3,4,5,6,7,8},
	{1,2,3,4,5,6,7,8,9},
	{2,4,5,7},
	{1,2,3,4,5,6,7,8},
	{1,2,5,7,8,9},
	{1,2,3,4,5,6,7,8},
	{1,5,7,8,9},
	{2,3,4,6},
	{2,3,4,5,6,9},
	{2,3,4,6},
	{2,4},
	{2,3,4,5,6,9},
	{5,7,8},
	{1,2,5,9},
	{1,2,4,5,7,8},
	{}];

POTENTIAL_ACT = [{2,3,6,9,10,11,12,14,16,17,18,19,20,21,23,25,28,29,31,32,33,34,38,40,46,48,50,51,52,53,60,61},
	{2,3,4,6,7,10,12,14,16,17,19,20,21,22,23,24,25,26,27,30,31,33,34,36,37,39,40,41,42,43,44,45,46,47,48,49,50,51,52,54,55,56,57,58,60,61},
	{2,6,7,12,14,16,17,22,23,27,30,31,33,36,37,42,44,45,46,47,48,50,52,54,55,56,58},
	{2,3,4,6,7,10,12,14,16,17,20,21,22,23,24,25,26,27,30,31,33,34,36,37,39,40,41,42,43,44,45,46,47,48,49,50,52,54,55,56,57,58,61},
	{2,3,5,6,7,8,9,10,11,12,13,14,15,16,17,18,19,20,21,22,23,24,25,28,29,30,31,32,33,34,35,36,38,40,42,44,46,47,48,49,50,51,52,53,55,58,59,60,61},
	{2,6,7,12,14,16,17,22,23,27,30,31,33,36,37,42,44,45,46,47,48,50,52,54,55,56,58},
	{2,3,5,6,7,9,11,12,13,15,16,18,19,20,22,23,24,25,28,29,30,31,32,34,35,36,38,44,47,48,49,50,51,52,53,59,61},
	{2,3,6,7,9,11,12,13,15,16,18,20,22,23,25,28,29,30,31,32,34,36,38,44,47,48,50,51,52,53,59,61},
	{2,8,10,14,16,17,19,20,21,23,31,33,40,42,46,48,51,53,55,58,60}];
